p wcnf 116 232 233 
1 63 47 0 
1 -80 -17 0 
1 -89 -62 0 
1 110 90 0 
1 -66 -56 0 
1 -40 -18 0 
1 -77 -3 0 
1 86 39 0 
1 -12 -61 0 
1 -71 14 0 
1 23 14 0 
1 -115 32 0 
1 64 25 0 
1 -6 -23 0 
1 61 85 0 
1 -71 -61 0 
1 -91 -111 0 
1 -36 67 0 
1 -66 98 0 
1 27 -100 0 
1 51 -27 0 
1 -23 47 0 
1 -18 -49 0 
1 -84 26 0 
1 -64 -97 0 
1 -55 101 0 
1 -55 -88 0 
1 6 103 0 
1 -76 57 0 
1 -17 -69 0 
1 -44 86 0 
1 21 23 0 
1 -3 83 0 
1 -54 51 0 
1 112 -68 0 
1 -59 43 0 
1 97 65 0 
1 -81 83 0 
1 73 -6 0 
1 26 -52 0 
1 84 -55 0 
1 -67 44 0 
1 -78 -115 0 
1 52 -110 0 
1 51 -46 0 
1 -108 -19 0 
1 89 -2 0 
1 67 107 0 
1 -51 -108 0 
1 88 -27 0 
1 -55 58 0 
1 -21 100 0 
1 -44 64 0 
1 28 102 0 
1 82 21 0 
1 -80 49 0 
1 75 100 0 
1 113 -58 0 
1 40 -75 0 
1 59 -6 0 
1 -22 -67 0 
1 46 -96 0 
1 17 75 0 
1 21 -90 0 
1 -58 77 0 
1 -25 21 0 
1 -50 48 0 
1 76 69 0 
1 -29 -85 0 
1 -88 -105 0 
1 3 15 0 
1 -41 -84 0 
1 30 45 0 
1 -59 -93 0 
1 6 76 0 
1 -51 115 0 
1 -105 -114 0 
1 23 -58 0 
1 99 8 0 
1 -46 48 0 
1 7 23 0 
1 -37 2 0 
1 108 -56 0 
1 34 -31 0 
1 45 -101 0 
1 45 34 0 
1 -66 -80 0 
1 -114 -73 0 
1 28 42 0 
1 41 112 0 
1 23 -9 0 
1 22 -103 0 
1 56 85 0 
1 43 71 0 
1 -46 -15 0 
1 -18 -64 0 
1 74 39 0 
1 -71 -56 0 
1 -65 10 0 
1 -56 -4 0 
1 -49 7 0 
1 61 -8 0 
1 39 -24 0 
1 85 -107 0 
1 -93 -100 0 
1 -85 -31 0 
1 61 2 0 
1 8 1 0 
1 5 -94 0 
1 -40 50 0 
1 75 26 0 
1 -69 71 0 
1 -61 -90 0 
1 78 86 0 
1 22 48 0 
1 -103 3 0 
1 -30 -18 0 
1 31 -64 0 
1 -106 -8 0 
1 -23 93 0 
1 110 31 0 
1 99 76 0 
1 101 85 0 
1 37 74 0 
1 -71 5 0 
1 -30 67 0 
1 70 -11 0 
1 96 -108 0 
1 -4 -28 0 
1 -109 -21 0 
1 27 -35 0 
1 -22 -59 0 
1 7 -57 0 
1 111 -45 0 
1 107 -44 0 
1 14 -66 0 
1 35 -9 0 
1 -81 71 0 
1 -4 -105 0 
1 84 -29 0 
1 95 98 0 
1 38 -90 0 
1 -57 -49 0 
1 39 -44 0 
1 43 97 0 
1 -18 91 0 
1 107 -28 0 
1 -100 27 0 
1 -102 -104 0 
1 77 46 0 
1 115 -102 0 
1 -54 -97 0 
1 113 -27 0 
1 107 -92 0 
1 2 -43 0 
1 -42 -13 0 
1 -73 -50 0 
1 -11 -83 0 
1 24 55 0 
1 -45 -2 0 
1 101 -55 0 
1 31 -80 0 
1 13 85 0 
1 -19 24 0 
1 93 -52 0 
1 -8 92 0 
1 74 -81 0 
1 -59 -42 0 
1 -38 -35 0 
1 87 -66 0 
1 -108 48 0 
1 85 -69 0 
1 57 68 0 
1 -81 55 0 
1 -62 80 0 
1 -80 13 0 
1 33 12 0 
1 16 -53 0 
1 97 -79 0 
1 -101 57 0 
1 86 43 0 
1 90 33 0 
1 20 51 0 
1 31 -105 0 
1 -86 30 0 
1 -68 65 0 
1 -64 -26 0 
1 -17 49 0 
1 37 21 0 
1 30 -18 0 
1 66 -106 0 
1 89 -95 0 
1 112 78 0 
1 -109 -6 0 
1 -89 -87 0 
1 60 -7 0 
1 103 43 0 
1 12 69 0 
1 -116 34 0 
1 -42 -50 0 
1 109 -63 0 
1 24 -22 0 
1 -59 64 0 
1 46 -74 0 
1 21 -56 0 
1 10 47 0 
1 -9 -73 0 
1 60 49 0 
1 -116 30 0 
1 -30 -79 0 
1 -78 48 0 
1 -42 -24 0 
1 -37 91 0 
1 86 5 0 
1 -62 -83 0 
1 73 99 0 
1 61 84 0 
1 102 -82 0 
1 57 3 0 
1 40 -70 0 
1 -76 25 0 
1 74 112 0 
1 43 27 0 
1 98 70 0 
1 113 -2 0 
1 -3 50 0 
1 13 89 0 
1 40 -69 0 
1 -112 12 0 
1 -66 -36 0 
1 100 -76 0 
1 40 -55 0 
